p cnf 386 460
12 -6 -17 21 22 0
12 -6 -17 21 -22 0
12 -6 -17 -21 23 0
12 -6 -17 -21 -23 0
2 -19 18 24 25 0
2 -19 18 24 -25 0
2 -19 18 -24 26 0
2 -19 18 -24 -26 0
15 -17 14 27 28 0
15 -17 14 27 -28 0
15 -17 14 -27 29 0
15 -17 14 -27 -29 0
18 -9 -5 30 31 0
18 -9 -5 30 -31 0
18 -9 -5 -30 32 0
18 -9 -5 -30 -32 0
-5 9 -15 33 34 0
-5 9 -15 33 -34 0
-5 9 -15 -33 35 0
-5 9 -15 -33 -35 0
19 13 -15 36 37 0
19 13 -15 36 -37 0
19 13 -15 -36 38 0
19 13 -15 -36 -38 0
4 -8 7 39 40 0
4 -8 7 39 -40 0
4 -8 7 -39 41 0
4 -8 7 -39 -41 0
-1 -10 7 42 43 0
-1 -10 7 42 -43 0
-1 -10 7 -42 44 0
-1 -10 7 -42 -44 0
-20 -3 -12 45 46 0
-20 -3 -12 45 -46 0
-20 -3 -12 -45 47 0
-20 -3 -12 -45 -47 0
3 13 -16 48 49 0
3 13 -16 48 -49 0
3 13 -16 -48 50 0
3 13 -16 -48 -50 0
-16 -6 -9 51 52 0
-16 -6 -9 51 -52 0
-16 -6 -9 -51 53 0
-16 -6 -9 -51 -53 0
1 3 7 54 55 0
1 3 7 54 -55 0
1 3 7 -54 56 0
1 3 7 -54 -56 0
-8 -7 13 57 58 0
-8 -7 13 57 -58 0
-8 -7 13 -57 59 0
-8 -7 13 -57 -59 0
19 -17 12 60 61 0
19 -17 12 60 -61 0
19 -17 12 -60 62 0
19 -17 12 -60 -62 0
6 -14 3 63 64 0
6 -14 3 63 -64 0
6 -14 3 -63 65 0
6 -14 3 -63 -65 0
15 12 14 66 67 0
15 12 14 66 -67 0
15 12 14 -66 68 0
15 12 14 -66 -68 0
2 -9 -11 69 70 0
2 -9 -11 69 -70 0
2 -9 -11 -69 71 0
2 -9 -11 -69 -71 0
10 -3 4 72 73 0
10 -3 4 72 -73 0
10 -3 4 -72 74 0
10 -3 4 -72 -74 0
12 16 17 75 76 0
12 16 17 75 -76 0
12 16 17 -75 77 0
12 16 17 -75 -77 0
-14 -11 -1 78 79 0
-14 -11 -1 78 -79 0
-14 -11 -1 -78 80 0
-14 -11 -1 -78 -80 0
-5 6 -8 81 82 0
-5 6 -8 81 -82 0
-5 6 -8 -81 83 0
-5 6 -8 -81 -83 0
-8 -9 -5 84 85 0
-8 -9 -5 84 -85 0
-8 -9 -5 -84 86 0
-8 -9 -5 -84 -86 0
-15 6 -3 87 88 0
-15 6 -3 87 -88 0
-15 6 -3 -87 89 0
-15 6 -3 -87 -89 0
-18 20 -15 90 91 0
-18 20 -15 90 -91 0
-18 20 -15 -90 92 0
-18 20 -15 -90 -92 0
2 -17 11 93 94 0
2 -17 11 93 -94 0
2 -17 11 -93 95 0
2 -17 11 -93 -95 0
-18 -7 6 96 97 0
-18 -7 6 96 -97 0
-18 -7 6 -96 98 0
-18 -7 6 -96 -98 0
-4 6 -1 99 100 0
-4 6 -1 99 -100 0
-4 6 -1 -99 101 0
-4 6 -1 -99 -101 0
-5 7 12 102 103 0
-5 7 12 102 -103 0
-5 7 12 -102 104 0
-5 7 12 -102 -104 0
-12 2 4 105 106 0
-12 2 4 105 -106 0
-12 2 4 -105 107 0
-12 2 4 -105 -107 0
11 -12 6 108 109 0
11 -12 6 108 -109 0
11 -12 6 -108 110 0
11 -12 6 -108 -110 0
-1 -20 8 111 112 0
-1 -20 8 111 -112 0
-1 -20 8 -111 113 0
-1 -20 8 -111 -113 0
1 -18 -15 114 115 0
1 -18 -15 114 -115 0
1 -18 -15 -114 116 0
1 -18 -15 -114 -116 0
16 -3 -6 117 118 0
16 -3 -6 117 -118 0
16 -3 -6 -117 119 0
16 -3 -6 -117 -119 0
18 -6 -14 120 121 0
18 -6 -14 120 -121 0
18 -6 -14 -120 122 0
18 -6 -14 -120 -122 0
5 -11 -6 123 124 0
5 -11 -6 123 -124 0
5 -11 -6 -123 125 0
5 -11 -6 -123 -125 0
13 -15 -18 126 127 0
13 -15 -18 126 -127 0
13 -15 -18 -126 128 0
13 -15 -18 -126 -128 0
-10 12 4 129 130 0
-10 12 4 129 -130 0
-10 12 4 -129 131 0
-10 12 4 -129 -131 0
9 10 -17 132 133 0
9 10 -17 132 -133 0
9 10 -17 -132 134 0
9 10 -17 -132 -134 0
-9 -14 19 135 136 0
-9 -14 19 135 -136 0
-9 -14 19 -135 137 0
-9 -14 19 -135 -137 0
13 12 1 138 139 0
13 12 1 138 -139 0
13 12 1 -138 140 0
13 12 1 -138 -140 0
18 -2 -10 141 142 0
18 -2 -10 141 -142 0
18 -2 -10 -141 143 0
18 -2 -10 -141 -143 0
-3 19 16 144 145 0
-3 19 16 144 -145 0
-3 19 16 -144 146 0
-3 19 16 -144 -146 0
8 12 -5 147 148 0
8 12 -5 147 -148 0
8 12 -5 -147 149 0
8 12 -5 -147 -149 0
-15 9 -7 150 151 0
-15 9 -7 150 -151 0
-15 9 -7 -150 152 0
-15 9 -7 -150 -152 0
1 12 8 153 154 0
1 12 8 153 -154 0
1 12 8 -153 155 0
1 12 8 -153 -155 0
-4 11 -15 156 157 0
-4 11 -15 156 -157 0
-4 11 -15 -156 158 0
-4 11 -15 -156 -158 0
15 20 -8 159 160 0
15 20 -8 159 -160 0
15 20 -8 -159 161 0
15 20 -8 -159 -161 0
-14 8 -16 162 163 0
-14 8 -16 162 -163 0
-14 8 -16 -162 164 0
-14 8 -16 -162 -164 0
-3 -13 4 165 166 0
-3 -13 4 165 -166 0
-3 -13 4 -165 167 0
-3 -13 4 -165 -167 0
11 5 18 168 169 0
11 5 18 168 -169 0
11 5 18 -168 170 0
11 5 18 -168 -170 0
10 17 -18 171 172 0
10 17 -18 171 -172 0
10 17 -18 -171 173 0
10 17 -18 -171 -173 0
19 1 -2 174 175 0
19 1 -2 174 -175 0
19 1 -2 -174 176 0
19 1 -2 -174 -176 0
15 -11 13 177 178 0
15 -11 13 177 -178 0
15 -11 13 -177 179 0
15 -11 13 -177 -179 0
10 -7 -20 180 181 0
10 -7 -20 180 -181 0
10 -7 -20 -180 182 0
10 -7 -20 -180 -182 0
-6 16 -9 183 184 0
-6 16 -9 183 -184 0
-6 16 -9 -183 185 0
-6 16 -9 -183 -185 0
1 -19 9 186 187 0
1 -19 9 186 -187 0
1 -19 9 -186 188 0
1 -19 9 -186 -188 0
5 19 -6 189 190 0
5 19 -6 189 -190 0
5 19 -6 -189 191 0
5 19 -6 -189 -191 0
13 -14 -8 192 193 0
13 -14 -8 192 -193 0
13 -14 -8 -192 194 0
13 -14 -8 -192 -194 0
19 -3 17 195 196 0
19 -3 17 195 -196 0
19 -3 17 -195 197 0
19 -3 17 -195 -197 0
-6 8 16 198 199 0
-6 8 16 198 -199 0
-6 8 16 -198 200 0
-6 8 16 -198 -200 0
18 8 -17 201 202 0
18 8 -17 201 -202 0
18 8 -17 -201 203 0
18 8 -17 -201 -203 0
8 5 -14 204 205 0
8 5 -14 204 -205 0
8 5 -14 -204 206 0
8 5 -14 -204 -206 0
20 -19 -1 207 208 0
20 -19 -1 207 -208 0
20 -19 -1 -207 209 0
20 -19 -1 -207 -209 0
9 16 15 210 211 0
9 16 15 210 -211 0
9 16 15 -210 212 0
9 16 15 -210 -212 0
-15 17 18 213 214 0
-15 17 18 213 -214 0
-15 17 18 -213 215 0
-15 17 18 -213 -215 0
-10 -14 2 216 217 0
-10 -14 2 216 -217 0
-10 -14 2 -216 218 0
-10 -14 2 -216 -218 0
-1 -4 -5 219 220 0
-1 -4 -5 219 -220 0
-1 -4 -5 -219 221 0
-1 -4 -5 -219 -221 0
8 -11 9 222 223 0
8 -11 9 222 -223 0
8 -11 9 -222 224 0
8 -11 9 -222 -224 0
-6 -8 18 225 226 0
-6 -8 18 225 -226 0
-6 -8 18 -225 227 0
-6 -8 18 -225 -227 0
-2 11 4 228 229 0
-2 11 4 228 -229 0
-2 11 4 -228 230 0
-2 11 4 -228 -230 0
5 12 3 231 232 0
5 12 3 231 -232 0
5 12 3 -231 233 0
5 12 3 -231 -233 0
-8 -5 -6 234 235 0
-8 -5 -6 234 -235 0
-8 -5 -6 -234 236 0
-8 -5 -6 -234 -236 0
-3 7 -11 237 238 0
-3 7 -11 237 -238 0
-3 7 -11 -237 239 0
-3 7 -11 -237 -239 0
-20 13 -11 240 241 0
-20 13 -11 240 -241 0
-20 13 -11 -240 242 0
-20 13 -11 -240 -242 0
1 19 20 243 244 0
1 19 20 243 -244 0
1 19 20 -243 245 0
1 19 20 -243 -245 0
-5 -12 -11 246 247 0
-5 -12 -11 246 -247 0
-5 -12 -11 -246 248 0
-5 -12 -11 -246 -248 0
-19 -1 -18 249 250 0
-19 -1 -18 249 -250 0
-19 -1 -18 -249 251 0
-19 -1 -18 -249 -251 0
13 -6 20 252 253 0
13 -6 20 252 -253 0
13 -6 20 -252 254 0
13 -6 20 -252 -254 0
15 -20 19 255 256 0
15 -20 19 255 -256 0
15 -20 19 -255 257 0
15 -20 19 -255 -257 0
2 -19 6 258 259 0
2 -19 6 258 -259 0
2 -19 6 -258 260 0
2 -19 6 -258 -260 0
11 -5 -17 261 262 0
11 -5 -17 261 -262 0
11 -5 -17 -261 263 0
11 -5 -17 -261 -263 0
-14 12 -4 264 265 0
-14 12 -4 264 -265 0
-14 12 -4 -264 266 0
-14 12 -4 -264 -266 0
-17 -5 -20 267 268 0
-17 -5 -20 267 -268 0
-17 -5 -20 -267 269 0
-17 -5 -20 -267 -269 0
-15 -9 20 270 271 0
-15 -9 20 270 -271 0
-15 -9 20 -270 272 0
-15 -9 20 -270 -272 0
-13 1 -3 273 274 0
-13 1 -3 273 -274 0
-13 1 -3 -273 275 0
-13 1 -3 -273 -275 0
-16 -3 14 276 277 0
-16 -3 14 276 -277 0
-16 -3 14 -276 278 0
-16 -3 14 -276 -278 0
4 -7 18 279 280 0
4 -7 18 279 -280 0
4 -7 18 -279 281 0
4 -7 18 -279 -281 0
5 14 -8 282 283 0
5 14 -8 282 -283 0
5 14 -8 -282 284 0
5 14 -8 -282 -284 0
-18 -5 7 285 286 0
-18 -5 7 285 -286 0
-18 -5 7 -285 287 0
-18 -5 7 -285 -287 0
-18 10 2 288 289 0
-18 10 2 288 -289 0
-18 10 2 -288 290 0
-18 10 2 -288 -290 0
13 16 11 291 292 0
13 16 11 291 -292 0
13 16 11 -291 293 0
13 16 11 -291 -293 0
294 295 297 301 309 0
294 295 297 301 -309 0
294 295 297 -301 310 0
294 295 297 -301 -310 0
294 295 -297 302 311 0
294 295 -297 302 -311 0
294 295 -297 -302 312 0
294 295 -297 -302 -312 0
294 -295 298 303 313 0
294 -295 298 303 -313 0
294 -295 298 -303 314 0
294 -295 298 -303 -314 0
294 -295 -298 304 315 0
294 -295 -298 304 -315 0
294 -295 -298 -304 316 0
294 -295 -298 -304 -316 0
-294 296 299 305 317 0
-294 296 299 305 -317 0
-294 296 299 -305 318 0
-294 296 299 -305 -318 0
-294 296 -299 306 319 0
-294 296 -299 306 -319 0
-294 296 -299 -306 320 0
-294 296 -299 -306 -320 0
-294 -296 300 307 321 0
-294 -296 300 307 -321 0
-294 -296 300 -307 322 0
-294 -296 300 -307 -322 0
-294 -296 -300 308 323 0
-294 -296 -300 308 -323 0
-294 -296 -300 -308 324 0
-294 -296 -300 -308 -324 0
325 326 328 332 340 0
325 326 328 332 -340 0
325 326 328 -332 341 0
325 326 328 -332 -341 0
325 326 -328 333 342 0
325 326 -328 333 -342 0
325 326 -328 -333 343 0
325 326 -328 -333 -343 0
325 -326 329 334 344 0
325 -326 329 334 -344 0
325 -326 329 -334 345 0
325 -326 329 -334 -345 0
325 -326 -329 335 346 0
325 -326 -329 335 -346 0
325 -326 -329 -335 347 0
325 -326 -329 -335 -347 0
-325 327 330 336 348 0
-325 327 330 336 -348 0
-325 327 330 -336 349 0
-325 327 330 -336 -349 0
-325 327 -330 337 350 0
-325 327 -330 337 -350 0
-325 327 -330 -337 351 0
-325 327 -330 -337 -351 0
-325 -327 331 338 352 0
-325 -327 331 338 -352 0
-325 -327 331 -338 353 0
-325 -327 331 -338 -353 0
-325 -327 -331 339 354 0
-325 -327 -331 339 -354 0
-325 -327 -331 -339 355 0
-325 -327 -331 -339 -355 0
356 357 359 363 371 0
356 357 359 363 -371 0
356 357 359 -363 372 0
356 357 359 -363 -372 0
356 357 -359 364 373 0
356 357 -359 364 -373 0
356 357 -359 -364 374 0
356 357 -359 -364 -374 0
356 -357 360 365 375 0
356 -357 360 365 -375 0
356 -357 360 -365 376 0
356 -357 360 -365 -376 0
356 -357 -360 366 377 0
356 -357 -360 366 -377 0
356 -357 -360 -366 378 0
356 -357 -360 -366 -378 0
-356 358 361 367 379 0
-356 358 361 367 -379 0
-356 358 361 -367 380 0
-356 358 361 -367 -380 0
-356 358 -361 368 381 0
-356 358 -361 368 -381 0
-356 358 -361 -368 382 0
-356 358 -361 -368 -382 0
-356 -358 362 369 383 0
-356 -358 362 369 -383 0
-356 -358 362 -369 384 0
-356 -358 362 -369 -384 0
-356 -358 -362 370 385 0
-356 -358 -362 370 -385 0
-356 -358 -362 -370 386 0
-356 -358 -362 -370 -386 0

